nbNodes = 12;
nbVehi = 3;
nbServi = 5;

e = 
 [|    0,  395,   37,  415,  421,  314,  408,  232,  192,  168,  461,    0,
 |    0,   53,  102,  170,  436,  318,  184,  289,   29,   65,  352,    0,
 |    0,  100,  107,  192,  389,  109,  396,  268,   65,  224,  185,    0,
 |    0,  306,  324,  140,  368,  339,  149,   53,  320,   90,  126,    0,
 |    0,  132,  377,   73,  387,  464,  389,  476,  434,  135,  371,    0,
 |];

l = 
 [| 480, 439,  68, 470, 467, 369, 461, 266, 242, 211, 503, 480,
 | 480,  96, 161, 211, 473, 372, 238, 332,  81, 109, 405, 480,
 | 480, 157, 148, 237, 427, 167, 441, 315,  99, 269, 243, 480,
 | 480, 337, 368, 186, 418, 380, 180, 109, 354, 128, 160, 480,
 | 480, 163, 420, 132, 429, 519, 438, 535, 472, 172, 408, 480,
 |];

a = 
 [|  1,  1,  0,  1,  0,
 |  1,  1,  1,  0,  1,
 |  1,  0,  1,  1,  0,
 |];

p = array3d(1..nbNodes,1..nbVehi,1..nbServi,
[  0,  0,  0,  0,  0,	  0,  0,  0,  0,  0,	  0,  0,  0,  0,  0,	
 20,  7, 12, 10, 21,	 23,  9, 28, 13, 16,	 19, 19, 24,  8,  5,	
 25, 16, 29, 18, 10,	 27,  7, 28, 23, 11,	 24, 13, 13, 20, 15,	
  9, 12, 20, 18, 19,	 11, 12, 24,  9, 22,	 10, 26, 11,  6, 29,	
 13, 28, 17, 12, 16,	 23, 12, 21, 23,  7,	 29, 19, 15, 15, 11,	
 28, 19, 18, 18, 10,	 10, 26, 19, 29,  7,	 11, 11,  5, 19, 15,	
 29, 27, 13, 19, 12,	 27, 14, 19, 20,  7,	 21, 19, 24,  6, 29,	
  5,  6, 21, 19, 21,	 26, 24, 17, 15, 25,	 22, 23,  8, 22, 12,	
 20, 24,  9, 29, 13,	 16, 28, 22,  5, 18,	 26, 23,  7, 20, 27,	
  7, 21, 28, 25, 12,	 20, 21,  8,  9,  8,	  5, 26, 26, 10, 19,	
  8, 26, 13, 14, 27,	 21, 26, 25, 15, 28,	 15, 13, 24, 19, 29,	
  0,  0,  0,  0,  0,	  0,  0,  0,  0,  0,	  0,  0,  0,  0,  0,	
]);

rs = 
[|true,true,true,true,true,
 |false,false,false,true,false,
 |false,false,true,false,false,
 |false,true,false,false,false,
 |false,false,false,true,false,
 |false,false,false,false,true,
 |false,true,false,false,false,
 |false,false,false,false,true,
 |false,false,false,false,true,
 |false,true,false,false,false,
 |false,false,true,false,false,
 |true,true,true,true,true,
 |];

d=[|0, 28, 21, 12, 11, 16, 19, 13, 18, 6, 7, 0, 
|28, 0, 22, 29, 29, 17, 39, 20, 13, 34, 34, 28, 
|21, 22, 0, 31, 13, 25, 20, 25, 23, 23, 28, 21, 
|12, 29, 31, 0, 24, 11, 31, 8, 15, 17, 12, 12, 
|11, 29, 13, 24, 0, 24, 10, 21, 24, 11, 16, 11, 
|16, 17, 25, 11, 24, 0, 33, 3, 4, 22, 20, 16, 
|19, 39, 20, 31, 10, 33, 0, 31, 34, 15, 21, 19, 
|13, 20, 25, 8, 21, 3, 31, 0, 7, 19, 16, 13, 
|18, 13, 23, 15, 24, 4, 34, 7, 0, 24, 23, 18, 
|6, 34, 23, 17, 11, 22, 15, 19, 24, 0, 6, 6, 
|7, 34, 28, 12, 16, 20, 21, 16, 23, 6, 0, 7, 
|0, 28, 21, 12, 11, 16, 19, 13, 18, 6, 7, 0, 
|];

%coord=[ (0,0), (21,19), (-1,21), (10,-8), (-7,9), (16,2), (-17,9), (13,0), (17,6), (-6,-2), (-2,-7), (0,0), ];

